(set-option :produce-models true)
(set-logic QF_UF)
(declare-fun p6() Bool)
(declare-fun p8() Bool)
(declare-fun p13() Bool)
(declare-fun p10() Bool)
(declare-fun p12() Bool)
(declare-fun p1() Bool)
(declare-fun p0() Bool)
(declare-fun p21() Bool)
(declare-fun p22() Bool)
(declare-fun p2() Bool)
(declare-fun p23() Bool)
(declare-fun p11() Bool)
(declare-fun p24() Bool)
(declare-fun p4() Bool)
(declare-fun p7() Bool)
(declare-fun p19() Bool)
(declare-fun p15() Bool)
(declare-fun p14() Bool)
(declare-fun p3() Bool)
(declare-fun p20() Bool)
(declare-fun p9() Bool)
(declare-fun p5() Bool)
(declare-fun p17() Bool)
(declare-fun p18() Bool)
(declare-fun p16() Bool)
(assert
(and (or p6 p8 (not p13)) (or (not p10) p10 (not p12)) (or (not p1) (not p0) p21) (or p22 (not p0) p2) (or p23 (not p11) p10) (or p24 (not p8) (not p4)) (or (not p22) p12 (not p2)) (or (not p4) p7 p22) (or p8 p11 p0) (or (not p19) p15 p6) (or p14 (not p12) (not p24)) (or (not p12) (not p3) p15) (or p21 (not p8) p24) (or p21 (not p20) (not p7)) (or p8 p13 (not p20)) (or p1 (not p13) (not p7)) (or p8 p23 (not p15)) (or (not p19) p11 p11) (or (not p11) p21 p24) (or (not p9) p8 (not p5)) (or (not p2) p21 (not p22)) (or (not p23) p7 p17) (or (not p1) p8 p11) (or (not p5) (not p8) p23) (or (not p9) p21 (not p15)) (or p18 p8 (not p12)) (or p2 p7 p8) (or (not p1) (not p20) p1) (or (not p14) p19 p0) (or (not p22) (not p24) (not p14)) (or (not p17) p12 p10) (or p2 p17 p19) (or p18 p15 (not p18)) (or (not p10) (not p18) p13) (or p3 p2 p2) (or (not p13) (not p3) p8) (or p13 (not p14) (not p17)) (or (not p23) (not p20) p12) (or p10 p15 (not p24)) (or (not p13) (not p11) p11) (or p7 (not p14) p15) (or (not p15) p9 p22) (or p3 (not p17) (not p24)) (or (not p23) p14 p3) (or (not p9) (not p18) (not p11)) (or p8 p10 (not p18)) (or p7 (not p6) p13) (or p7 p13 p1) (or (not p4) (not p15) p22) (or p20 (not p2) p2) (or (not p20) p23 (not p12)) (or p8 (not p17) p11) (or p3 (not p9) p2) (or p24 (not p6) (not p11)) (or p3 p18 (not p6)) (or p22 (not p8) (not p12)) (or (not p22) (not p12) (not p5)) (or p2 p15 (not p8)) (or p5 (not p19) p16) (or (not p4) p4 p8) (or (not p0) p14 (not p21)) (or p2 (not p6) (not p11)) (or (not p14) p24 p0) (or (not p6) p3 p2) (or p8 (not p17) p17) (or p10 p13 (not p15)) (or p8 (not p12) p9) (or p2 p5 p12) (or p10 (not p20) p19) (or p23 p24 p24) (or p14 p19 p21) (or p1 (not p14) (not p11)) (or (not p18) (not p10) (not p0)) (or p13 p8 p9) (or p23 p8 (not p19)) (or p4 p4 p23) (or (not p24) (not p13) p17) (or p5 (not p9) (not p12)) (or p3 (not p13) p18) (or p2 p3 p12) (or (not p11) p11 p18) (or p17 p20 p8) (or (not p13) (not p10) (not p9)) (or (not p7) (not p2) (not p4)) (or (not p23) (not p10) p11) (or p23 (not p13) (not p24)) (or (not p4) p1 (not p8)) (or p17 (not p9) (not p17)) (or p5 (not p13) (not p12)) (or p18 (not p2) p5) (or (not p9) (not p13) p14) (or (not p6) p0 p14) (or p18 (not p6) (not p0)) (or p21 (not p21) p2) (or (not p4) p2 p13) (or (not p1) p15 (not p13)) (or (not p14) p15 p21) (or (not p9) (not p23) p24) (or (not p1) p12 (not p9)) (or p5 p11 (not p6)) (or (not p22) (not p24) (not p0)) (or p24 (not p12) p8) (or p4 p13 p9) (or (not p8) p22 (not p13)) (or (not p15) p6 p9) (or (not p12) p9 p9) (or (not p13) (not p12) p2))
)
(check-sat)
(get-model)
